Reading model...
...model read.
creating competitive generators file...
...competitive generators recorded.
Loading data...
.. real-time data read.
Compiling instance...
...instance created.
Creating Offer Mitigation (model will solve as dispatch if TRUE)...
Solving...

Welcome to IBM(R) ILOG(R) CPLEX(R) Interactive Optimizer 12.10.0.0
  with Simplex, Mixed Integer & Barrier Optimizers
5725-A06 5725-A29 5724-Y48 5724-Y49 5724-Y54 5724-Y55 5655-Y21
Copyright IBM Corp. 1988, 2019.  All Rights Reserved.

Type 'help' for a list of available commands.
Type 'help' followed by a command name for more
information on commands.

CPLEX> Logfile 'cplex.log' closed.
Logfile 'C:\Users\wenmi\Desktop\competitiveMPEC\logs\tmp9obg78w6.cplex.log' open.
CPLEX> New value for parallel optimization mode: -1
CPLEX> New value for mixed integer optimality gap tolerance: 0.01
CPLEX> New value for deterministic time limit in ticks: 30000
CPLEX> Problem 'C:\Users\wenmi\Desktop\competitiveMPEC\logs\tmpkpsctzem.pyomo.lp' read.
Read time = 0.03 sec. (2.90 ticks)
CPLEX> Problem name         : C:\Users\wenmi\Desktop\competitiveMPEC\logs\tmpkpsctzem.pyomo.lp
Objective sense      : Minimize
Variables            :   25837  [Nneg: 1,  Box: 21420,  Free: 4416]
Objective nonzeros   :    2496
Linear constraints   :   27321  [Less: 13885,  Greater: 4416,  Equal: 9020]
  Nonzeros           :   86197
  RHS nonzeros       :   11834

Variables            : Min LB: -5000.000        Max UB: 1000000.       
Objective nonzeros   : Min   : 15.73158         Max   : 124.0997       
Linear constraints   :
  Nonzeros           : Min   : 0.9219544        Max   : 390.6461       
  RHS nonzeros       : Min   : 1.000000         Max   : 5000.000       
CPLEX> Version identifier: 12.10.0.0 | 2019-11-26 | 843d4de2ae
CPXPARAM_Parallel                                -1
CPXPARAM_DetTimeLimit                            30000
CPXPARAM_MIP_Tolerances_MIPGap                   0.01
Parallel mode: opportunistic, using up to 16 threads for concurrent optimization:
 * Starting dual Simplex on 1 thread...
 * Starting Barrier on 14 threads...
 * Starting primal Simplex on 1 thread...
Tried aggregator 1 time.
LP Presolve eliminated 20317 rows and 14654 columns.
Aggregator did 818 substitutions.
Reduced LP has 6186 rows, 10365 columns, and 36424 nonzeros.
Presolve time = 0.05 sec. (29.80 ticks)
Symmetry aggregator did 6969 additional substitutions.
Initializing dual steep norms . . .

Iteration log . . .
Iteration:     1   Dual objective     =             0.000000
Perturbation started.
Iteration:   101   Dual objective     =             0.000000
Iteration:   354   Dual objective     =            46.200103
Iteration:   588   Dual objective     =            49.600416
Iteration:   789   Dual objective     =            49.629667
Iteration:   959   Dual objective     =            49.645846
Removing perturbation.

Dual crossover.
  Dual:  Fixed no variables.
  Primal:  Fixed no variables.

Dual simplex solved model.


Dual simplex - Optimal:  Objective =  0.0000000000e+00
Solution time =    0.08 sec.  Iterations = 1187 (0)
Deterministic time = 69.72 ticks  (893.86 ticks/sec)

CPLEX> Solution written to file 'C:\Users\wenmi\Desktop\competitiveMPEC\logs\tmp30dtu35r.cplex.sol'.
CPLEX> Exporting results... 
...storage offer mitigation file created
Converting model to MPEC...
...converted
NOTE: initial MIP solve with only storage competitive to get feasible solution
Solving...

Welcome to IBM(R) ILOG(R) CPLEX(R) Interactive Optimizer 12.10.0.0
  with Simplex, Mixed Integer & Barrier Optimizers
5725-A06 5725-A29 5724-Y48 5724-Y49 5724-Y54 5724-Y55 5655-Y21
Copyright IBM Corp. 1988, 2019.  All Rights Reserved.

Type 'help' for a list of available commands.
Type 'help' followed by a command name for more
information on commands.

CPLEX> Logfile 'cplex.log' closed.
Logfile 'C:\Users\wenmi\Desktop\competitiveMPEC\logs\tmpr75r2kvo.cplex.log' open.
CPLEX> New value for parallel optimization mode: -1
CPLEX> New value for mixed integer optimality gap tolerance: 0.01
CPLEX> New value for deterministic time limit in ticks: 30000
CPLEX> Problem 'C:\Users\wenmi\Desktop\competitiveMPEC\logs\tmpka19eq8x.pyomo.lp' read.
Read time = 0.14 sec. (13.58 ticks)
CPLEX> Problem name         : C:\Users\wenmi\Desktop\competitiveMPEC\logs\tmpka19eq8x.pyomo.lp
Objective sense      : Maximize
Variables            :   53320  [Nneg: 1,  Box: 21805,  Free: 4416,
                                 Binary: 27098]
Objective nonzeros   :    8640
Linear constraints   :  122164  [Less: 40983,  Greater: 58612,  Equal: 22569]
  Nonzeros           :  286942
  RHS nonzeros       :   66642

Variables            : Min LB: -5000.000        Max UB: 1000000.       
Objective nonzeros   : Min   : 2.333333         Max   : 827.6000       
Linear constraints   :
  Nonzeros           : Min   : 0.9219544        Max   : 1000000.       
  RHS nonzeros       : Min   : 1.000000         Max   : 1000000.       
CPLEX> Version identifier: 12.10.0.0 | 2019-11-26 | 843d4de2ae
CPXPARAM_Parallel                                -1
CPXPARAM_DetTimeLimit                            30000
CPXPARAM_MIP_Tolerances_MIPGap                   0.01
Tried aggregator 3 times.
MIP Presolve eliminated 89014 rows and 20574 columns.
MIP Presolve added 3024 rows and 0 columns.
MIP Presolve modified 23938 coefficients.
Aggregator did 12801 substitutions.
Reduced MIP has 23373 rows, 19129 columns, and 69763 nonzeros.
Reduced MIP has 7535 binaries, 0 generals, 0 SOSs, and 0 indicators.
Presolve time = 0.16 sec. (164.00 ticks)
Probing fixed 432 vars, tightened 3626 bounds.
Probing time = 0.03 sec. (17.34 ticks)
Tried aggregator 2 times.
Detecting symmetries...
MIP Presolve eliminated 960 rows and 864 columns.
MIP Presolve modified 2689 coefficients.
Aggregator did 24 substitutions.
Reduced MIP has 22389 rows, 18241 columns, and 66907 nonzeros.
Reduced MIP has 7103 binaries, 0 generals, 0 SOSs, and 0 indicators.
Presolve time = 0.06 sec. (63.03 ticks)
Probing fixed 0 vars, tightened 243 bounds.
Probing time = 0.11 sec. (32.67 ticks)
Clique table members: 51745.
MIP emphasis: balance optimality and feasibility.
MIP search method: dynamic search.
Parallel mode: opportunistic, using up to 16 threads.
Root relaxation solution time = 0.19 sec. (466.16 ticks)

        Nodes                                         Cuts/
   Node  Left     Objective  IInf  Best Integer    Best Bound    ItCnt     Gap

      0     0        0.0000    55                      0.0000     4383         
*     0+    0                            0.0000        0.0000             0.00%
      0     0        cutoff              0.0000        0.0000     4383    0.00%
Elapsed time = 0.78 sec. (943.92 ticks, tree = 0.01 MB, solutions = 1)

Root node processing (before b&c):
  Real time             =    0.78 sec. (945.82 ticks)
Parallel b&c, 16 threads:
  Real time             =    0.00 sec. (0.00 ticks)
  Sync time (average)   =    0.00 sec.
  Wait time (average)   =    0.00 sec.
                          ------------
Total (root+branch&cut) =    0.78 sec. (945.82 ticks)

Solution pool: 1 solution saved.

MIP - Integer optimal solution:  Objective =  0.0000000000e+00
Solution time =    0.80 sec.  Iterations = 4383  Nodes = 0
Deterministic time = 945.97 ticks  (1186.91 ticks/sec)

CPLEX> Incumbent solution written to file 'C:\Users\wenmi\Desktop\competitiveMPEC\logs\tmpkkn8ug3m.cplex.sol'.
CPLEX> NOTE: no warmstart specified for MIP iteration, default behavior is true
NOTE: resolving with all competitive generators using storage-only solution to warmstart
Solving...

Welcome to IBM(R) ILOG(R) CPLEX(R) Interactive Optimizer 12.10.0.0
  with Simplex, Mixed Integer & Barrier Optimizers
5725-A06 5725-A29 5724-Y48 5724-Y49 5724-Y54 5724-Y55 5655-Y21
Copyright IBM Corp. 1988, 2019.  All Rights Reserved.

Type 'help' for a list of available commands.
Type 'help' followed by a command name for more
information on commands.

CPLEX> Logfile 'cplex.log' closed.
Logfile 'C:\Users\wenmi\Desktop\competitiveMPEC\logs\tmppm5bzos6.cplex.log' open.
CPLEX> New value for parallel optimization mode: -1
CPLEX> New value for mixed integer optimality gap tolerance: 0.01
CPLEX> New value for deterministic time limit in ticks: 30000
CPLEX> Problem 'C:\Users\wenmi\Desktop\competitiveMPEC\logs\tmp_khevb8d.pyomo.lp' read.
Read time = 0.14 sec. (13.60 ticks)
CPLEX> MIP start file 'C:\Users\wenmi\Desktop\competitiveMPEC\logs\tmpxe6mii8u.cplex.mst' read.
CPLEX> Problem name         : C:\Users\wenmi\Desktop\competitiveMPEC\logs\tmp_khevb8d.pyomo.lp
Objective sense      : Maximize
Variables            :   54040  [Nneg: 1,  Box: 22525,  Free: 4416,
                                 Binary: 27098]
Objective nonzeros   :    9336
Linear constraints   :  122164  [Less: 40983,  Greater: 58612,  Equal: 22569]
  Nonzeros           :  286942
  RHS nonzeros       :   66642

Variables            : Min LB: -5000.000        Max UB: 1000000.       
Objective nonzeros   : Min   : 2.333333         Max   : 783.5000       
Linear constraints   :
  Nonzeros           : Min   : 0.9219544        Max   : 1000000.       
  RHS nonzeros       : Min   : 1.000000         Max   : 1000000.       
CPLEX> Version identifier: 12.10.0.0 | 2019-11-26 | 843d4de2ae
CPXPARAM_Parallel                                -1
CPXPARAM_DetTimeLimit                            30000
CPXPARAM_MIP_Tolerances_MIPGap                   0.01
1 of 1 MIP starts provided solutions.
MIP start 'm1' defined initial solution with objective 0.0000.
Tried aggregator 3 times.
MIP Presolve eliminated 89014 rows and 21294 columns.
MIP Presolve added 3024 rows and 0 columns.
MIP Presolve modified 23938 coefficients.
Aggregator did 12801 substitutions.
Reduced MIP has 23373 rows, 19129 columns, and 69763 nonzeros.
Reduced MIP has 7535 binaries, 0 generals, 0 SOSs, and 0 indicators.
Presolve time = 0.16 sec. (164.35 ticks)
Probing fixed 432 vars, tightened 3626 bounds.
Probing time = 0.03 sec. (17.34 ticks)
Tried aggregator 2 times.
Detecting symmetries...
MIP Presolve eliminated 960 rows and 864 columns.
MIP Presolve modified 2689 coefficients.
Aggregator did 24 substitutions.
Reduced MIP has 22389 rows, 18241 columns, and 66907 nonzeros.
Reduced MIP has 7103 binaries, 0 generals, 0 SOSs, and 0 indicators.
Presolve time = 0.05 sec. (63.03 ticks)
Probing fixed 0 vars, tightened 243 bounds.
Probing time = 0.09 sec. (32.67 ticks)
Clique table members: 51745.
MIP emphasis: balance optimality and feasibility.
MIP search method: dynamic search.
Parallel mode: opportunistic, using up to 16 threads.
Root relaxation solution time = 0.30 sec. (556.50 ticks)

        Nodes                                         Cuts/
   Node  Left     Objective  IInf  Best Integer    Best Bound    ItCnt     Gap

*     0+    0                            0.0000   5.71148e+07              --- 
      0     0    92334.9578   236        0.0000    92334.9578     6374     --- 
*     0+    0                            0.0011    92334.9578              --- 
      0     0    88960.3333   236        0.0011     Cuts: 525     6598     --- 
      0     0    88958.1403   236        0.0011     Cuts: 474     6833     --- 
      0     0    88955.1018   236        0.0011     Cuts: 379     6893     --- 
      0     0    88949.2293   236        0.0011      Cuts: 10     6918     --- 
      0     0    88945.8267   236        0.0011       Cuts: 7     6923     --- 
      0     5        cutoff              0.0011    85285.2764     7211     --- 
Elapsed time = 2.97 sec. (2536.28 ticks, tree = 0.02 MB, solutions = 2)
    251    40    50310.0649   149        0.0011    76968.9963     7824     --- 
    573   299        cutoff              0.0011    76968.9963     9984     --- 
    981   422    17645.0518    68        0.0011    76968.9963    11508     --- 
   1320   595    42095.4522    90        0.0011    76968.9963    12283     --- 
   1717   801        cutoff              0.0011    74570.1423    14084     --- 
   2036   954    39827.9014   135        0.0011    74570.1423    15621     --- 
   2358  1274        cutoff              0.0011    64388.3428    20486     --- 
   2641  1281    30215.6700   126        0.0011    61547.3954    20690     --- 
   2955  1443    14342.0356    74        0.0011    56863.3921    23580     --- 
   4172  2236    33745.5923   148        0.0011    51999.1844    39896     --- 
Elapsed time = 15.64 sec. (5649.16 ticks, tree = 14.62 MB, solutions = 2)

Performing restart 1

Repeating presolve.
Tried aggregator 3 times.
MIP Presolve eliminated 753 rows and 690 columns.
MIP Presolve modified 47663 coefficients.
Aggregator did 263 substitutions.
Reduced MIP has 21373 rows, 17288 columns, and 63485 nonzeros.
Reduced MIP has 6806 binaries, 0 generals, 0 SOSs, and 0 indicators.
Presolve time = 0.11 sec. (100.18 ticks)
Tried aggregator 2 times.
MIP Presolve eliminated 475 rows and 392 columns.
MIP Presolve modified 10498 coefficients.
Aggregator did 8 substitutions.
Reduced MIP has 20890 rows, 16888 columns, and 62174 nonzeros.
Reduced MIP has 6610 binaries, 0 generals, 0 SOSs, and 0 indicators.
Presolve time = 0.03 sec. (38.52 ticks)
Tried aggregator 2 times.
MIP Presolve modified 9778 coefficients.
Aggregator did 1 substitutions.
Reduced MIP has 20889 rows, 16887 columns, and 62170 nonzeros.
Reduced MIP has 6610 binaries, 0 generals, 0 SOSs, and 0 indicators.
Presolve time = 0.05 sec. (48.65 ticks)
Represolve time = 0.70 sec. (510.87 ticks)
   4775     0    79308.2678   211        0.0011     Cuts: 136    59975     --- 
   4775     0    79308.2678   211        0.0011     Cuts: 112    60111     --- 
   4775     0    68774.0153   211        0.0011     Cuts: 175    60266     --- 
   4775     0        cutoff              0.0011        0.0011    60384    0.00%

GUB cover cuts applied:  1
Cover cuts applied:  4
Implied bound cuts applied:  20
Flow cuts applied:  235
Mixed integer rounding cuts applied:  94
Lift and project cuts applied:  8
Gomory fractional cuts applied:  43

Root node processing (before b&c):
  Real time             =    2.61 sec. (2521.46 ticks)
Parallel b&c, 16 threads:
  Real time             =   15.45 sec. (6108.61 ticks)
  Sync time (average)   =    0.21 sec.
  Wait time (average)   =    0.00 sec.
                          ------------
Total (root+branch&cut) =   18.06 sec. (8630.08 ticks)

Solution pool: 2 solutions saved.

MIP - Integer optimal solution:  Objective =  1.1142785624e-03
Solution time =   18.06 sec.  Iterations = 60384  Nodes = 4775
Deterministic time = 8630.23 ticks  (477.81 ticks/sec)

CPLEX> Incumbent solution written to file 'C:\Users\wenmi\Desktop\competitiveMPEC\logs\tmpg7elzc1n.cplex.sol'.
CPLEX> Exporting results... 
